c colouring generated by benchmark framework
p edge 500 3555
v 1 10
v 2 11
v 3 6
v 4 4
v 5 0
v 6 8
v 7 3
v 8 4
v 9 6
v 10 10
v 11 10
v 12 8
v 13 10
v 14 4
v 15 9
v 16 7
v 17 0
v 18 3
v 19 6
v 20 5
v 21 7
v 22 0
v 23 1
v 24 7
v 25 11
v 26 11
v 27 11
v 28 11
v 29 10
v 30 5
v 31 0
v 32 3
v 33 1
v 34 11
v 35 8
v 36 8
v 37 11
v 38 0
v 39 10
v 40 11
v 41 10
v 42 3
v 43 10
v 44 2
v 45 6
v 46 0
v 47 3
v 48 7
v 49 2
v 50 0
v 51 3
v 52 1
v 53 4
v 54 2
v 55 5
v 56 1
v 57 4
v 58 8
v 59 2
v 60 3
v 61 10
v 62 3
v 63 0
v 64 7
v 65 7
v 66 1
v 67 4
v 68 10
v 69 3
v 70 3
v 71 1
v 72 9
v 73 5
v 74 7
v 75 11
v 76 8
v 77 8
v 78 9
v 79 1
v 80 8
v 81 2
v 82 1
v 83 6
v 84 7
v 85 1
v 86 7
v 87 4
v 88 5
v 89 6
v 90 8
v 91 5
v 92 0
v 93 10
v 94 3
v 95 6
v 96 6
v 97 1
v 98 0
v 99 5
v 100 4
v 101 0
v 102 11
v 103 8
v 104 3
v 105 0
v 106 8
v 107 9
v 108 11
v 109 8
v 110 4
v 111 3
v 112 10
v 113 3
v 114 8
v 115 7
v 116 1
v 117 2
v 118 7
v 119 2
v 120 11
v 121 9
v 122 8
v 123 2
v 124 10
v 125 0
v 126 10
v 127 2
v 128 11
v 129 1
v 130 2
v 131 8
v 132 7
v 133 8
v 134 8
v 135 6
v 136 10
v 137 2
v 138 4
v 139 6
v 140 9
v 141 6
v 142 5
v 143 10
v 144 9
v 145 3
v 146 6
v 147 0
v 148 5
v 149 8
v 150 0
v 151 8
v 152 6
v 153 9
v 154 4
v 155 2
v 156 1
v 157 7
v 158 2
v 159 8
v 160 7
v 161 0
v 162 8
v 163 5
v 164 6
v 165 3
v 166 3
v 167 1
v 168 6
v 169 8
v 170 0
v 171 11
v 172 5
v 173 4
v 174 5
v 175 7
v 176 2
v 177 2
v 178 3
v 179 5
v 180 11
v 181 5
v 182 10
v 183 8
v 184 4
v 185 7
v 186 9
v 187 0
v 188 7
v 189 3
v 190 4
v 191 2
v 192 9
v 193 11
v 194 2
v 195 10
v 196 0
v 197 7
v 198 2
v 199 5
v 200 5
v 201 2
v 202 5
v 203 4
v 204 1
v 205 6
v 206 11
v 207 0
v 208 11
v 209 0
v 210 6
v 211 11
v 212 11
v 213 8
v 214 9
v 215 8
v 216 6
v 217 9
v 218 5
v 219 1
v 220 6
v 221 4
v 222 11
v 223 10
v 224 6
v 225 2
v 226 4
v 227 5
v 228 9
v 229 4
v 230 1
v 231 8
v 232 6
v 233 4
v 234 2
v 235 7
v 236 8
v 237 9
v 238 3
v 239 4
v 240 0
v 241 2
v 242 9
v 243 0
v 244 5
v 245 4
v 246 1
v 247 9
v 248 3
v 249 7
v 250 5
v 251 1
v 252 3
v 253 8
v 254 1
v 255 2
v 256 7
v 257 9
v 258 10
v 259 0
v 260 11
v 261 4
v 262 6
v 263 8
v 264 11
v 265 3
v 266 5
v 267 8
v 268 8
v 269 0
v 270 5
v 271 4
v 272 9
v 273 7
v 274 8
v 275 7
v 276 5
v 277 6
v 278 8
v 279 8
v 280 5
v 281 9
v 282 0
v 283 0
v 284 3
v 285 4
v 286 6
v 287 10
v 288 2
v 289 5
v 290 4
v 291 7
v 292 3
v 293 6
v 294 3
v 295 10
v 296 7
v 297 6
v 298 5
v 299 5
v 300 5
v 301 4
v 302 11
v 303 8
v 304 9
v 305 8
v 306 3
v 307 9
v 308 0
v 309 11
v 310 5
v 311 4
v 312 1
v 313 4
v 314 6
v 315 7
v 316 2
v 317 10
v 318 6
v 319 6
v 320 10
v 321 2
v 322 10
v 323 8
v 324 4
v 325 11
v 326 9
v 327 2
v 328 9
v 329 10
v 330 11
v 331 4
v 332 0
v 333 11
v 334 5
v 335 2
v 336 8
v 337 0
v 338 3
v 339 8
v 340 2
v 341 3
v 342 7
v 343 10
v 344 0
v 345 8
v 346 9
v 347 1
v 348 1
v 349 7
v 350 9
v 351 10
v 352 11
v 353 3
v 354 7
v 355 4
v 356 0
v 357 7
v 358 11
v 359 6
v 360 11
v 361 11
v 362 10
v 363 0
v 364 4
v 365 10
v 366 8
v 367 9
v 368 4
v 369 2
v 370 1
v 371 9
v 372 0
v 373 2
v 374 3
v 375 3
v 376 8
v 377 6
v 378 6
v 379 7
v 380 8
v 381 10
v 382 1
v 383 3
v 384 1
v 385 10
v 386 1
v 387 9
v 388 2
v 389 3
v 390 9
v 391 8
v 392 1
v 393 4
v 394 1
v 395 3
v 396 3
v 397 6
v 398 8
v 399 3
v 400 7
v 401 9
v 402 2
v 403 3
v 404 6
v 405 10
v 406 2
v 407 2
v 408 7
v 409 8
v 410 11
v 411 3
v 412 7
v 413 6
v 414 2
v 415 3
v 416 10
v 417 11
v 418 2
v 419 9
v 420 10
v 421 3
v 422 6
v 423 6
v 424 11
v 425 7
v 426 5
v 427 0
v 428 0
v 429 4
v 430 8
v 431 5
v 432 10
v 433 2
v 434 6
v 435 5
v 436 6
v 437 8
v 438 7
v 439 10
v 440 6
v 441 4
v 442 10
v 443 9
v 444 10
v 445 9
v 446 9
v 447 1
v 448 0
v 449 8
v 450 5
v 451 1
v 452 3
v 453 8
v 454 1
v 455 10
v 456 1
v 457 10
v 458 5
v 459 9
v 460 1
v 461 4
v 462 1
v 463 1
v 464 5
v 465 9
v 466 2
v 467 11
v 468 9
v 469 9
v 470 8
v 471 6
v 472 4
v 473 0
v 474 1
v 475 3
v 476 4
v 477 4
v 478 4
v 479 2
v 480 7
v 481 7
v 482 6
v 483 2
v 484 0
v 485 7
v 486 11
v 487 9
v 488 5
v 489 5
v 490 2
v 491 7
v 492 11
v 493 9
v 494 7
v 495 5
v 496 9
v 497 6
v 498 9
v 499 10
v 500 0
